c This Formular is generated by mcnf
c
c    horn? no 
c    forced? no 
c    mixed sat? no 
c    clause length = 3 
c
p cnf 20  91 
 -15 -9 -19 0
-8 -4 -5 0
2 5 -20 0
19 5 -16 0
-13 16 7 0
-13 -20 12 0
-7 -18 -10 0
-5 15 -4 0
-13 -14 11 0
10 -15 -13 0
14 20 -6 0
11 -7 -20 0
-7 15 -4 0
-6 2 17 0
8 -18 14 0
2 17 14 0
-16 -13 5 0
-4 -7 -14 0
-17 4 -16 0
-3 6 -11 0
-12 19 -13 0
%
0

38 42 39 32 60 93 69 95 99 11 77 10 100 80 84 25 22 22 25 48
